Nb of jobs, Nb of Machines, Time seed, Machine seed, Upper bound, Lower bound
10,5,-1,-1,-1,-1
Times
73,37,91,59,29
36,65,97,78,88
30,80,53,58,37
96,27,30,90,24
18,22,78,94,42
2,79,52,72,58
98,87,42,36,8
13,86,45,65,58
25,59,56,53,42
9,9,8,86,27
Machines
2,1,3,5,4
5,4,2,3,1
4,3,2,1,5
1,5,4,2,3
3,4,1,5,2
2,5,3,4,1
1,4,2,5,3
4,3,5,1,2
3,2,5,1,4
5,4,2,1,3
